
Gurobi 9.1.2 (win64, Java) logging started Fri Nov 12 00:35:16 2021

Academic license - for non-commercial use only - expires 2022-10-30
Gurobi Optimizer version 9.1.2 build v9.1.2rc0 (win64)
Thread count: 6 physical cores, 12 logical processors, using up to 12 threads
Optimize a model with 80 rows, 1200 columns and 2400 nonzeros
Model fingerprint: 0x8d5b473e
Variable types: 0 continuous, 1200 integer (1200 binary)
Coefficient statistics:
  Matrix range     [1e+00, 1e+03]
  Objective range  [5e+00, 1e+03]
  Bounds range     [1e+00, 1e+00]
  RHS range        [1e+00, 1e+03]
Found heuristic solution: objective 20323.000000
Presolve removed 0 rows and 389 columns
Presolve time: 0.01s
Presolved: 80 rows, 811 columns, 1622 nonzeros
Variable types: 0 continuous, 811 integer (811 binary)
Presolved: 80 rows, 811 columns, 1622 nonzeros


Root relaxation: objective 2.424063e+04, 242 iterations, 0.00 seconds

    Nodes    |    Current Node    |     Objective Bounds      |     Work
 Expl Unexpl |  Obj  Depth IntInf | Incumbent    BestBd   Gap | It/Node Time

     0     0 24240.6346    0   28 20323.0000 24240.6346  19.3%     -    0s
H    0     0                    22621.000000 24240.6346  7.16%     -    0s
H    0     0                    23241.000000 24240.6346  4.30%     -    0s
H    0     0                    23311.000000 24240.6346  3.99%     -    0s
H    0     0                    23570.000000 24240.6346  2.85%     -    0s
H    0     0                    23774.000000 24240.6346  1.96%     -    0s
     0     0 24240.6346    0   63 23774.0000 24240.6346  1.96%     -    0s
     0     0 24240.6346    0   34 23774.0000 24240.6346  1.96%     -    0s
     0     2 24240.6346    0   34 23774.0000 24240.6346  1.96%     -    0s
H   33    43                    23802.000000 24237.3590  1.83%  68.1    0s
H   37    43                    23853.000000 24237.3590  1.61%  61.8    0s
H   67    95                    23880.000000 24237.3590  1.50%  46.1    0s
H  817   784                    23936.000000 24237.3590  1.26%  14.1    1s
H 1344  1050                    24034.000000 24197.2786  0.68%  13.9    1s
H 1381  1021                    24125.000000 24176.5535  0.21%  17.6    3s

Cutting planes:
  Gomory: 4
  Cover: 63
  Clique: 12
  MIR: 113
  StrongCG: 98
  Flow cover: 12

Explored 3066 nodes (139691 simplex iterations) in 4.69 seconds
Thread count was 12 (of 12 available processors)

Solution count 10: 24125 24034 23936 ... 23241

Optimal solution found (tolerance 1.00e-12)
Best objective 2.412500000000e+04, best bound 2.412500000000e+04, gap 0.0000%
